language ESSENCE' 1.0
letting initGrid be [
    [1, 1, 1, 1, 1],
[2, 3, 2, 3, 3],
[3, 1, 3, 1, 2],
[2, 1, 1, 1, 2],
[1, 1, 2, 1, 2],
[3, 1, 3, 1, 2]
    ]
letting goalBlocksRemaining be 2
letting noSteps be 4
